outputs/case_154.model.txt
misconduct_14_spread_false_information_disturb_financial_order = False
misconduct_2_unapproved_insurance_business = False
misconduct_1_false_report_on_license_application = False
misconduct_3_unapproved_insurance_operations = False
misconduct_9_unauthorized_use_of_license = False
misconduct_21_fail_to_report_to_agent_association = False
misconduct_27_hold_positions_in_insurance_or_association_conflict = False
violate_165_1_or_163_5_applied = False
misconduct_6_false_or_misleading_promotion_or_recruitment = False
violate_163_7 = False
misconduct_30_other_violations_of_rules_or_laws = False
misconduct_24_fail_to_confirm_suitability_for_financial_consumers = False
misconduct_25_sell_unapproved_foreign_policy_discount_products = False
misconduct_22_use_unapproved_advertisement_content = False
misconduct_26_submit_false_or_incomplete_business_or_financial_reports = False
violate_163_4_financial_or_business_management = False
misconduct_17_employ_unqualified_insurance_recruiters = False
misconduct_16_illegal_transfer_of_policy_documents = False
misconduct_20_fail_to_appoint_agent_after_resignation = False
violation_163_4_7_165_1_163_5 = False
misconduct_15_authorize_others_to_operate_or_use_others_name = False
misconduct_23_pay_commission_to_non_actual_recruiters = False
misconduct_13_illegal_insurance_payments = False
misconduct_29_fail_to_fill_recruitment_report_truthfully = False
misconduct_12_illegal_collection_of_money_or_benefits = False
misconduct_7_improper_inducement_of_policyholder = False
misconduct_28_induce_contract_termination_or_use_loans_to_pay_premiums = False
misconduct_4_conceal_important_contract_info = False
misconduct_31_other_behaviors_damaging_insurance_image = False
misconduct_19_unauthorized_suspension_or_termination_of_business = False
misconduct_18_fail_to_cancel_license_within_deadline = False
agent_misconduct = False
misconduct_11_operate_outside_license_scope = False
penalty = False
misconduct_5_coerce_or_induce_contracting_freedom_restriction = False
misconduct_10_conviction_of_fraud_or_breach_of_trust = False
misconduct_8_misappropriation_or_embezzlement = False